   12
Starting structure. Energy in au =    -0.00006234
Ar     -2.05660635     -2.41940505     -9.25364146
Ar     -1.33311630     12.87226247     -1.03604685
Ar      6.07418551      9.18256021      3.80206081
Ar     16.00331628      9.45347177     -4.35291541
Ar      9.31549051     -9.25695301      7.29986041
Ar      6.77466196      4.44644161     -9.56171597
Ar      2.04556785     -2.66947725     -0.89334915
Ar    -10.26098822     -2.36280765     -3.09914250
Ar     -4.98920131      4.79445541     -4.98903406
Ar     -1.19727585    -13.77521177     11.27375387
Ar      5.78333776      1.83419730     -1.06106745
Ar     11.67147437      2.47794255      4.21282681
   12
Product of reaction   1 Energy in au =    -0.00006234
Ar     -1.89771930     -3.59406346    -11.92994326
Ar     -0.52527433     15.01285458      0.07422297
Ar      6.31151167      0.37728456      8.15231743
Ar     16.16439357     10.20078138     -5.45843004
Ar      6.99837245     -3.53020095      8.89352847
Ar      7.42676537      4.98730067    -13.36698004
Ar     -0.06226164     -6.08135043     -0.33850410
Ar    -11.67150388     -3.91878292     -2.46438351
Ar     -5.78484289      5.98106499     -5.82862226
Ar     -1.19727585    -13.77521177     11.27375387
Ar      5.50920500      4.78452809     -1.54832443
Ar     16.55947607      4.13327184      4.88295394
   12
Product of reaction   2 Energy in au =    -0.00006234
Ar     -1.95673697     -3.49397565    -12.24602611
Ar     -2.77578368      3.56242777      5.24012441
Ar      7.68236743     -0.30599479      8.75579386
Ar     16.15559155     10.27682914     -5.59064033
Ar      8.36922149     -4.21344210      9.49699766
Ar      7.46435309      4.98762147    -13.63878700
Ar      0.27681857     -7.49622813     -1.15605646
Ar    -11.67173891     -3.91916044     -2.46425635
Ar     -5.78461736      5.98144427     -5.82875115
Ar     -2.86356885     -0.19822603      6.70314585
Ar      5.90993303      5.02542847     -1.74005550
Ar     17.02500681      4.37075258      4.81010014
   12
Product of reaction   3 Energy in au =    -0.00006234
Ar     -1.95673742     -3.49397483    -12.24602836
Ar     -3.07608494      3.96454765      5.60569412
Ar      7.67775423     -0.30939332      8.75800584
Ar     16.70595115     10.57838082     -5.80634718
Ar      8.36460829     -4.21684063      9.49920963
Ar      7.48241664      4.98597150    -13.86552063
Ar      0.29756994     -7.54942455     -1.17228532
Ar    -12.08947462     -4.30290811     -2.71611693
Ar     -5.12903131      3.71077158     -1.05896873
Ar     -4.34068792      1.82837598      2.42322542
Ar      6.86020657      5.00525209     -1.88641891
Ar     17.03435560      4.37671840      4.80714009
   12
Product of reaction   4 Energy in au =    -0.00006234
Ar     -1.95673742     -3.49397483    -12.24602836
Ar     -3.77111340      4.37348865      5.96786601
Ar      7.73255051     -0.31981824      8.90439420
Ar     16.70595115     10.57838082     -5.80634718
Ar      8.41940457     -4.22726555      9.64559799
Ar      7.48241664      4.98597150    -13.86552063
Ar      3.64231999     -3.65190763     -2.11080569
Ar    -12.10817099     -4.32194075     -2.72906284
Ar     -5.82410275      4.11970684     -0.69693619
Ar     -5.03569337      2.23769237      2.78529835
Ar      5.50966563     -0.07957503     -2.31400668
Ar     17.03435565      4.37671844      4.80714007
   12
Product of reaction   5 Energy in au =    -0.00006234
Ar     -2.25904152     -3.54342958    -12.62276241
Ar     -0.34800387      2.05295099      6.69976869
Ar      3.04886114      0.52463575      8.32085299
Ar     16.70595115     10.57838082     -5.80634718
Ar      6.10551206     -1.83728190      9.54586936
Ar      7.48241664      4.98597150    -13.86552063
Ar      4.75844341     -4.31936923     -3.59510696
Ar    -12.10817099     -4.32194075     -2.72906284
Ar     -5.67330504      3.98050141      1.06552636
Ar     -3.54193083      2.84743437      4.31953622
Ar      6.62575842     -0.74709525     -3.79830461
Ar     17.03435565      4.37671844      4.80714007
   12
Product of reaction   6 Energy in au =    -0.00006234
Ar     -2.26244775     -3.54386118    -12.62658235
Ar     -0.70747553      3.15760818      7.96808980
Ar      1.61604025      0.36637025      6.59331282
Ar     16.70595115     10.57838082     -5.80634718
Ar      4.73219955     -1.06524719      8.75939966
Ar      7.48241664      4.98597150    -13.86552063
Ar      4.76674030     -4.32377417     -3.60425686
Ar    -12.10817099     -4.32194075     -2.72906284
Ar     -4.51082377      3.37212658      2.20240164
Ar     -1.55199460      1.74662429      4.45046943
Ar      6.63405531     -0.75150019     -3.80745452
Ar     17.03435565      4.37671844      4.80714007
   12
Product of reaction   7 Energy in au =    -0.00006234
Ar     -2.43502382     -3.56070207    -12.80695852
Ar     -0.77040957      3.28817435      8.23632905
Ar      1.65830118      0.36325939      6.98507527
Ar     16.70595115     10.57838082     -5.80634718
Ar      4.68829342     -0.96591144      9.01531879
Ar      7.48241664      4.98597150    -13.86552063
Ar      5.07421635     -4.65352629     -4.22161410
Ar    -12.10817099     -4.32194075     -2.72906284
Ar      3.46666715      3.55452424      3.72203176
Ar     -0.34950962      2.35757156      4.32838566
Ar      6.94153137     -1.08125235     -4.42481183
Ar      7.47658296      4.03292761      3.90876361
   12
Product of reaction   8 Energy in au =    -0.00006234
Ar     -2.73994576     -3.56243615    -13.07109934
Ar     -0.42612288      3.84195450      6.84081306
Ar      1.86176935      0.71822739      6.61158119
Ar     16.70595115     10.57838082     -5.80634718
Ar      4.47690084     -0.63314957      9.37752569
Ar      4.94367171      4.39290057     -3.87051918
Ar      5.75473842     -5.71286454     -5.56012308
Ar    -12.10817099     -4.32194075     -2.72906284
Ar      3.65591430      3.90814262     -0.05597527
Ar      1.71509325      3.24817709      3.45435256
Ar      7.62222267     -2.14110519     -5.76333562
Ar      6.36882416      4.26118978      2.91377906
   12
Product of reaction   9 Energy in au =    -0.00006234
Ar     -2.75064917     -3.56192970    -13.07930228
Ar     -0.45161980      3.88789838      6.86525406
Ar      1.84226605      0.75879211      6.64494858
Ar     16.70595115     10.57838082     -5.80634718
Ar      4.43700896     -0.59312452      9.42504588
Ar     -0.81212133      1.51852558     -2.23462507
Ar      5.89652193     -5.86157793     -5.77102218
Ar     -4.37117600     -0.30466753     -2.89441589
Ar      2.45811159      3.10889272     -0.42616586
Ar      1.61644755      3.26143528      3.50929537
Ar      7.76400870     -2.28982211     -5.97423604
Ar      5.49609658      4.07467347      2.08315964
   12
Product of reaction  10 Energy in au =    -0.00006234
Ar     -2.75065076     -3.56192962    -13.07930348
Ar     -0.45162438      3.88790323      6.86526072
Ar      1.84226127      0.75879622      6.64495607
Ar     16.70595115     10.57838082     -5.80634718
Ar      4.43700497     -0.59312016      9.42505276
Ar     -0.81207114      1.51855268     -2.23453481
Ar      5.89653974     -5.86159648     -5.77104837
Ar     -4.37103162     -0.30458676     -2.89438164
Ar      2.45806045      3.10884815     -0.42614245
Ar      1.61631643      3.26141370      3.50935043
Ar      7.76402651     -2.28984066     -5.97426224
Ar      5.49606358      4.07465545      2.08298923
   12
Product of reaction  11 Energy in au =    -0.00006234
Ar     -2.75096310     -3.56191281    -13.07953829
Ar      1.16643195      4.52350946      6.13269388
Ar      1.91158729      0.61860623      6.57731527
Ar     16.70595115     10.57838082     -5.80634718
Ar      4.43682460     -0.59319330      9.42713710
Ar     -0.68396134      1.58235093     -2.13779410
Ar      5.90008552     -5.86529131     -5.77626803
Ar     -4.22110768     -0.22654281     -2.86339486
Ar      2.56501058      3.23707765     -0.39324933
Ar      1.09690146      2.04204261      3.05530774
Ar      7.76757266     -2.29353586     -5.97948227
Ar      3.93651311      4.53598496      3.18520911
   12
Product of reaction  12 Energy in au =    -0.00006234
Ar     -2.75096310     -3.56191281    -13.07953829
Ar      0.15304163      3.84936124      3.99659135
Ar      1.81663944      1.03682524      6.37038738
Ar     16.70595115     10.57838082     -5.80634718
Ar      4.24940738     -0.48449991      9.21056228
Ar     -1.06580761      2.41406613      0.41731071
Ar      5.90008560     -5.86529139     -5.77626815
Ar     -3.37693506      0.36295240     -2.17619297
Ar      2.79254584      3.31686705     -0.37027898
Ar      1.61196375      0.61131144      2.39309954
Ar      7.76757289     -2.29353611     -5.97948256
Ar      4.02734431      4.61295247      3.14174590
   12
Product of reaction  13 Energy in au =    -0.00006234
Ar     -2.78379733     -3.55928003    -13.10285756
Ar      2.69425267      4.84968016      2.09116011
Ar      2.53047341      2.51543320      5.38479653
Ar      5.52703263      6.75243540     -0.10851937
Ar      3.89067582      0.31896582      8.28600678
Ar      0.92505237      3.40959977     -1.09288636
Ar      6.15576240     -6.30178906     -6.24827044
Ar     -2.47036883      1.24970214     -1.49563126
Ar      4.81359984      2.80450744     -0.10308181
Ar      2.15106405      0.83262272      1.91340310
Ar      8.02325013     -2.73003449     -6.45148567
Ar      6.37384905      4.43563350      3.26895499
   12
Product of reaction  14 Energy in au =    -0.00006234
Ar     -2.78379735     -3.55928003    -13.10285758
Ar      2.69136226      4.74341719      2.13419698
Ar      2.19929578      3.42024105      5.75407817
Ar      5.34029741      6.85890002     -0.08491933
Ar      3.66079143     -0.01958812      6.81868690
Ar      1.00223911      3.35452582     -1.12086796
Ar      6.15576241     -6.30178906     -6.24827043
Ar     -2.43867228      1.26994341     -1.49287614
Ar      4.80211923      2.47139624     -0.03417737
Ar      2.76094662      0.77933564      2.96359443
Ar      8.02325066     -2.73003534     -6.45148670
Ar      6.41725092      4.29040977      3.20648806
   12
Product of reaction  15 Energy in au =    -0.00006234
Ar     -2.78379735     -3.55928003    -13.10285758
Ar      3.40272690      4.31570105      1.37498095
Ar      2.48356234      4.04085228      5.30662376
Ar      5.42539233      3.78138274     -2.11499859
Ar      3.51627532      0.38702623      6.69051580
Ar      1.49467116      2.26956986     -1.31743667
Ar      6.44233606     -3.52386980     -5.36769956
Ar     -2.41528207      1.27913624     -1.49674100
Ar      4.91244364      0.93108946      0.41750909
Ar      2.11821644      0.87720976      3.09874613
Ar      6.28090428      0.23846165     -3.89452196
Ar      6.95339716      3.54019713      2.74746868
   12
Product of reaction  16 Energy in au =    -0.00006234
Ar      1.69104802      1.95967281     -4.46361510
Ar      2.43062298      2.97154715     -0.61034999
Ar      2.33567761      4.06361631      3.28689227
Ar      5.71133645      4.00469693     -2.74797878
Ar      3.24863408      1.12142826      5.90396970
Ar      0.50629641     -0.47436242     -1.51238741
Ar      6.44602141     -3.51027438     -5.36743006
Ar     -3.13856590      1.26231186     -1.36667007
Ar      4.36150221     -0.43412216     -0.28417092
Ar      1.65126386      0.35639632      2.38320311
Ar      6.62339636      0.36338266     -4.24281789
Ar      5.96361271      2.89318325      1.36294418
   12
Product of reaction  17 Energy in au =    -0.00006234
Ar      2.77947264      0.90382517     -4.31529327
Ar      2.49464551      2.79161187     -0.73187464
Ar      2.26190517      4.11040329      3.08930730
Ar      5.65144815      4.23053395     -2.81142586
Ar      3.19869021      1.26930184      5.81007738
Ar      0.48831345     -0.63280346     -1.41039574
Ar      4.96776366     -2.37317277     -5.23111468
Ar     -3.09708964      1.22925997     -1.37289382
Ar      4.34361800     -0.72216616     -0.15663331
Ar      1.61608053      0.35438047      2.38560427
Ar      7.12927855      0.74004423     -4.19913775
Ar      5.99671998      2.67625818      1.28536915
   12
Product of reaction  18 Energy in au =    -0.00006234
Ar      2.77943633      0.90390586     -4.31531707
Ar      2.49466761      2.79162960     -0.73186476
Ar      2.26185587      4.11044565      3.08930237
Ar      5.65141969      4.23059498     -2.81146236
Ar      3.19868123      1.26936279      5.81007701
Ar      0.48830123     -0.63289891     -1.41035595
Ar      4.96771739     -2.37310342     -5.23111422
Ar     -3.09706353      1.22923894     -1.37289715
Ar      4.34359455     -0.72229644     -0.15656989
Ar      1.61606823      0.35441285      2.38561336
Ar      7.12941034      0.74004987     -4.19916570
Ar      5.99675728      2.67613481      1.28534340
   12
Product of reaction  19 Energy in au =    -0.00006234
Ar      2.52337475      1.27083089     -4.52748565
Ar      2.48035530      2.71720848     -0.74870194
Ar      2.34728639      4.19461796      3.01588829
Ar      5.44993991      4.43304984     -2.90342498
Ar      3.21479178      1.41243450      5.81685285
Ar      0.31076683     -0.63451706     -1.40830335
Ar      5.39583588     -1.32775214     -3.43362173
Ar     -3.12599066      1.22491606     -1.37949094
Ar      3.77070235     -1.84712468      0.29553709
Ar      1.51670892      0.44955421      2.46252560
Ar      7.77213823      1.54350826     -4.52297859
Ar      6.17493652      1.14075025     -0.32520761
   12
Product of reaction  20 Energy in au =    -0.00006234
Ar      2.54501670      1.23959564     -4.91794226
Ar      2.64893551      2.69432145     -1.14676700
Ar      2.37474448      4.21757875      2.58899461
Ar      5.60709306      4.67770987     -3.06370711
Ar      0.29922883      1.83617415      5.11032480
Ar      0.38129599     -0.65347178     -1.25081937
Ar      5.58016918     -1.16324865     -3.76927798
Ar     -1.68130785      1.31265154      1.62203857
Ar      3.75412925     -2.51639369     -0.01454404
Ar      2.31329152      0.36469741      2.14248195
Ar      7.91884645      1.79541781     -4.69852636
Ar      6.08940309      0.77244407     -0.26066678
   12
Product of reaction  21 Energy in au =    -0.00006234
Ar      2.54501737      1.23961022     -4.91794715
Ar      2.64896748      2.69426049     -1.14673799
Ar      2.37474258      4.21760891      2.58898015
Ar      5.60707603      4.67771452     -3.06369918
Ar      0.29916474      1.83623114      5.11028010
Ar      0.38125031     -0.65347205     -1.25080417
Ar      5.58020732     -1.16321989     -3.76935307
Ar     -1.68140252      1.31262396      1.62203092
Ar      3.75406487     -2.51642322     -0.01453406
Ar      2.31346774      0.36471403      2.14260285
Ar      7.91886955      1.79547414     -4.69855505
Ar      6.08942074      0.77235431     -0.26067431
   12
Product of reaction  22 Energy in au =    -0.00006234
Ar      2.54501805      1.23962483     -4.91795199
Ar      2.64899946      2.69419951     -1.14670895
Ar      2.37474068      4.21763915      2.58896571
Ar      5.60705897      4.67771913     -3.06369122
Ar      0.29910072      1.83628806      5.11023536
Ar      0.38128945     -0.65342764     -1.25063995
Ar      5.58024546     -1.16319113     -3.76942814
Ar     -1.68149718      1.31259639      1.62202326
Ar      3.75400050     -2.51645272     -0.01452406
Ar      2.31355900      0.36468599      2.14257460
Ar      7.91889264      1.79553047     -4.69858374
Ar      6.08943847      0.77226453     -0.26068184
   12
Product of reaction  23 Energy in au =    -0.00006234
Ar      2.49345838      1.20507032     -4.56660905
Ar      2.56742278      2.04489599     -0.60054150
Ar      4.01743829      1.84487711      2.98540465
Ar      4.96036631      4.39332194     -2.88974306
Ar      0.38228555      3.09288297      4.30401940
Ar      0.20842774     -0.93239326     -1.35562300
Ar      5.84374456     -0.93350125     -3.84936375
Ar     -1.70569567      1.68670794      1.10949134
Ar      3.90303198     -1.26827204      0.34352006
Ar      0.82201609     -0.20944249      2.36742787
Ar      7.77052569      2.27795613     -4.89362820
Ar      6.56782452      1.37537323     -0.61276572
   12
Product of reaction  24 Energy in au =    -0.00006234
Ar      2.49344200      1.20505785     -4.56654570
Ar      2.56741894      2.04488997     -0.60048098
Ar      4.01748599      1.84479339      2.98544255
Ar      4.96030815      4.39333676     -2.88971510
Ar      0.38232600      3.09297395      4.30386456
Ar      0.20844715     -0.93241272     -1.35559299
Ar      5.84377569     -0.93347507     -3.84940709
Ar     -1.70571455      1.68677664      1.10939011
Ar      3.90303738     -1.26834719      0.34355823
Ar      0.82202672     -0.20947465      2.36746727
Ar      7.77048299      2.27804018     -4.89365006
Ar      6.56780975      1.37531748     -0.61274177
   12
Product of reaction  25 Energy in au =    -0.00006234
Ar      2.46963790      1.19654494     -4.48834671
Ar      2.41552322      2.07625254     -0.53326020
Ar      4.03890531      1.76899927      2.98113952
Ar      4.86214962      4.36200995     -2.82917905
Ar      0.43941184      3.12166916      4.25061144
Ar      0.27744334     -1.06201661     -1.33399129
Ar      5.86253388     -0.90933477     -3.88095417
Ar     -1.38593202      1.93750848      0.83047017
Ar      3.91868663     -1.39686877      0.43154090
Ar      0.80750222     -0.26503984      2.40937369
Ar      7.71371330      2.36216116     -4.89378386
Ar      6.41127095      1.38559107     -0.60203141
   12
Product of reaction  26 Energy in au =    -0.00006234
Ar      2.54647291      1.30767176     -4.45795846
Ar      2.40901022      2.07098267     -0.49064546
Ar      4.05069398      1.74414144      3.00483489
Ar      4.77073148      4.29553862     -2.91031718
Ar      0.44380197      3.13098240      4.21670618
Ar      0.28197489     -1.06551104     -1.31358086
Ar      5.87465220     -0.90744577     -3.89102432
Ar     -1.39738009      1.96839833      0.79574804
Ar      3.92108542     -1.42247860      0.45510031
Ar      0.81137543     -0.28592733      2.43476746
Ar      7.71617943      2.37563719     -4.90870960
Ar      6.40224838      1.36548691     -0.59333195
   12
Product of reaction  27 Energy in au =    -0.00006234
Ar      2.42125627      1.14899870     -4.89090435
Ar      3.04317296      1.08892301     -0.89789782
Ar      4.82971172      0.99019859      2.74619415
Ar      2.39674694      4.51939924     -2.97222440
Ar      2.73268017      3.94616908      1.35523555
Ar      0.05964143     -1.38315068     -0.83164780
Ar      6.15232732      0.62766083     -3.91739322
Ar     -0.67436583      2.56748177     -0.35390030
Ar      3.41463738     -2.45153567      1.16092645
Ar      1.00504245      0.47749184      2.54301260
Ar      5.80338166      3.71259675     -1.30495862
Ar      6.64661375     -0.66675688     -0.29485321
   12
Product of reaction  28 Energy in au =    -0.00006234
Ar      2.42480834      1.10940917     -4.93224533
Ar      3.04932330      1.00607334     -0.94849545
Ar      4.83308935      1.00208273      2.69416146
Ar      2.39081207      4.46072086     -2.97886008
Ar      2.72171803      4.02394897      1.43068567
Ar      0.01677581     -1.39843105     -0.77988088
Ar      6.18936746      0.73118412     -3.90968799
Ar     -0.62039202      2.57697275     -0.35442725
Ar      3.38267602     -2.46638088      1.19712961
Ar      1.00490204      0.51646395      2.51093230
Ar      5.78224396      3.75676603     -1.23696296
Ar      6.65552184     -0.74133341     -0.35076007
   12
Product of reaction  29 Energy in au =    -0.00006234
Ar      2.16382077      0.73732567     -4.89725697
Ar      2.99208007      0.94273939     -0.94360295
Ar      4.83004837      0.98957661      2.66408334
Ar      3.00624543      4.17414197     -3.30080246
Ar      2.68027872      3.98804425      1.42769715
Ar     -0.05886820     -1.42583350     -0.66709058
Ar      5.87253039      1.37969090     -3.85322521
Ar     -0.62553565      2.57745464     -0.43693086
Ar      3.35770913     -2.49221347      1.22714135
Ar      0.99608224      0.48390610      2.54465743
Ar      6.02455533      4.08003976     -0.85636686
Ar      6.59189962     -0.85739574     -0.56671435
   12
Product of reaction  30 Energy in au =    -0.00006234
Ar      2.17733754      0.73781477     -4.90930724
Ar      2.95945314      0.94833862     -0.95293779
Ar      4.94492938      1.15680703      2.37983803
Ar      3.06382074      4.18822734     -3.34404294
Ar      2.53716955      4.05167054      1.43921181
Ar     -0.07416103     -1.43548020     -0.59327928
Ar      5.96064354      1.46000888     -3.85074005
Ar     -0.68123804      2.56382561     -0.50172634
Ar      3.36274566     -2.41301809      1.30735180
Ar      1.09331822      0.46389122      2.59907348
Ar      5.94545294      3.78326163     -0.53894213
Ar      6.54137457     -0.92787078     -0.69291030
   12
Product of reaction  31 Energy in au =    -0.00006234
Ar      1.71813872      0.94705480     -4.45343541
Ar      3.17037620      0.92062036     -0.87892779
Ar      5.00375518      1.18187286      2.51967828
Ar      3.17831848      4.29196316     -3.15246045
Ar      2.34626668      3.98645609      1.33116697
Ar     -0.02590657     -1.48273201     -0.53976452
Ar      5.70833005      1.45163431     -3.86532234
Ar     -0.34910387      2.45455536     -1.29382862
Ar      3.43037965     -2.37475814      1.36657240
Ar      1.13287148      0.50145476      2.59146388
Ar      5.94953165      3.71275252     -0.49954518
Ar      6.56788856     -1.01339750     -0.78400818
   12
Product of reaction  32 Energy in au =    -0.00006234
Ar      1.67935785      0.99758543     -4.48594647
Ar      3.08360702      0.88614806     -0.88806149
Ar      4.94830146      1.19645215      2.61534322
Ar      3.21638180      4.28166757     -3.11612484
Ar      2.36127835      4.00052273      1.27185744
Ar      0.01607780     -1.46007774     -0.51939486
Ar      5.68123271      1.41250047     -3.96855552
Ar     -0.38967378      2.49017638     -1.32150990
Ar      3.51984048     -2.35437281      1.30712947
Ar      1.13710308      0.49674550      2.63618053
Ar      5.96529174      3.31607879     -0.47164376
Ar      6.61204769     -0.68594996     -0.71768478
   12
Product of reaction  33 Energy in au =    -0.00006234
Ar      1.67545839      1.03205757     -4.50773090
Ar      3.06857293      0.80595570     -0.90029792
Ar      4.91377136      1.24073335      2.62037834
Ar      3.17248084      4.28994070     -2.86818242
Ar      2.40612033      4.03720070      1.10001296
Ar     -0.00708370     -1.49317970     -0.49396161
Ar      5.67337938      1.41729686     -4.01670332
Ar     -0.41285412      2.44782044     -1.34158989
Ar      3.53148825     -2.33300170      1.30485554
Ar      1.11196303      0.52318030      2.62801345
Ar      6.06164742      3.30557497     -0.46404741
Ar      6.63590209     -0.69610259     -0.71915776
   12
Product of reaction  34 Energy in au =    -0.00006234
Ar      1.67546123      1.03213556     -4.50777005
Ar      3.06853802      0.80586901     -0.90030186
Ar      4.91373179      1.24079957      2.62038498
Ar      3.17254958      4.28998814     -2.86809993
Ar      2.40610665      4.03718588      1.09999118
Ar     -0.00713797     -1.49326636     -0.49388295
Ar      5.67338677      1.41733876     -4.01678808
Ar     -0.41288016      2.44772354     -1.34157684
Ar      3.53149777     -2.33294452      1.30486139
Ar      1.11189649      0.52322347      2.62800666
Ar      6.06176956      3.30555098     -0.46406232
Ar      6.63592646     -0.69612745     -0.71917314
   12
Product of reaction  35 Energy in au =    -0.00006234
Ar      1.67550398      1.03291078     -4.50812341
Ar      3.06960623      0.80628032     -0.90014319
Ar      4.91333243      1.24142327      2.62048987
Ar      3.17321198      4.29047579     -2.86734343
Ar      2.40595294      4.03707507      1.09979259
Ar     -0.00760741     -1.49407672     -0.49311202
Ar      5.67346148      1.41774939     -4.01765126
Ar     -0.41311013      2.44675026     -1.34143527
Ar      3.53159329     -2.33239943      1.30493643
Ar      1.11125774      0.52364904      2.62792248
Ar      6.06144308      3.30407220     -0.46441268
Ar      6.63620062     -0.69643340     -0.71933108
   12
Product of reaction  36 Energy in au =    -0.00006234
Ar      1.67775941      1.04499118     -4.51127635
Ar      3.06251827      0.80468628     -0.89997026
Ar      4.93374257      1.19988262      2.54634895
Ar      3.17563806      4.30080946     -2.86483827
Ar      2.41146350      4.03295985      1.09982013
Ar     -0.01554351     -1.50100294     -0.48371153
Ar      5.67880984      1.40764149     -4.01401915
Ar     -0.41738947      2.43760171     -1.33745450
Ar      3.51681457     -2.34505722      1.30661398
Ar      1.11437720      0.52696515      2.62996010
Ar      6.06825760      3.31945444     -0.48014962
Ar      6.62439817     -0.65145544     -0.64973444
   12
Product of reaction  37 Energy in au =    -0.00006234
Ar      1.66874964      1.05308871     -4.51824425
Ar      3.07348744      0.80235188     -0.91721730
Ar      4.93286654      1.19752581      2.53763793
Ar      3.17580574      4.30879474     -2.86674406
Ar      2.41465811      4.03011774      1.09519192
Ar     -0.01677190     -1.50157426     -0.48160726
Ar      5.65553139      1.39660853     -3.97893795
Ar     -0.41624490      2.43336125     -1.33445696
Ar      3.51505316     -2.34610882      1.30181381
Ar      1.11765808      0.52731520      2.62373667
Ar      6.07278097      3.32980967     -0.48427938
Ar      6.63727194     -0.65381390     -0.63530412
   12
Product of reaction  38 Energy in au =    -0.00006234
Ar      1.66908247      1.05121567     -4.53110245
Ar      3.09373082      0.79770572     -0.91267706
Ar      4.94029904      1.19778717      2.53242196
Ar      3.03922844      4.24221572     -2.80562916
Ar      2.43070001      4.03437772      1.11129066
Ar     -0.02010321     -1.47027640     -0.49231789
Ar      5.65333071      1.38770176     -3.96255855
Ar     -0.33686558      2.48180495     -1.39626127
Ar      3.51108400     -2.35331446      1.29431721
Ar      1.12356284      0.53113798      2.62089920
Ar      6.07161220      3.33797297     -0.49628322
Ar      6.65518448     -0.66085222     -0.62051039
   12
Product of reaction  39 Energy in au =    -0.00006234
Ar      1.47340176      0.68713157     -4.23626480
Ar      3.18961788      0.92133421     -0.82267840
Ar      4.95010123      1.18222202      2.59903454
Ar      2.95830582      4.20155089     -2.84120928
Ar      2.51026056      4.10574103      1.19020396
Ar      0.13869665     -1.37620757     -0.96879433
Ar      5.47810790      1.31623609     -3.90057249
Ar     -0.28893641      2.59729316     -1.32221220
Ar      3.45484734     -2.32383951      1.20547588
Ar      1.12782355      0.51851283      2.47735714
Ar      6.13650331      3.38013060     -0.47872486
Ar      6.70211661     -0.63262875     -0.56002611
   12
Product of reaction  40 Energy in au =    -0.00006234
Ar      1.47608396      0.69658695     -4.23837149
Ar      3.21332267      0.92261739     -0.82331128
Ar      4.94452130      1.16551525      2.61788317
Ar      2.93336634      4.20507588     -2.82841996
Ar      2.58977107      4.14724821      1.20463883
Ar      0.18001888     -1.43918076     -1.02693482
Ar      5.48719586      1.28472561     -3.91247183
Ar     -0.29691757      2.50731522     -1.08134456
Ar      3.46542272     -2.32862521      1.20155197
Ar      0.95296928      0.65130472      2.29978259
Ar      6.16476424      3.38937458     -0.52559089
Ar      6.72032745     -0.62448125     -0.54582269
