   12
   0.0000000000000000     
Ar   -2.05660635327   -2.41940505385   -9.25364146472
Ar   -1.33311630212   12.87226247048   -1.03604685165
Ar    6.07418550966    9.18256021461    3.80206080605
Ar   16.00331627546    9.45347176504   -4.35291540693
Ar    9.31549051482   -9.25695301473    7.29986041161
Ar    6.77466196078    4.44644160707   -9.56171596521
Ar    2.04556785325   -2.66947725425   -0.89334915142
Ar  -10.26098821632   -2.36280765376   -3.09914250493
Ar   -4.98920130794    4.79445540763   -4.98903405794
Ar   -1.19727585190  -13.77521177192   11.27375386794
Ar    5.78333775920    1.83419730292   -1.06106745169
Ar   11.67147436857    2.47794255394    4.21282680670
