   12
   0.0000000000000000     
Ar    0.85439517136   -2.54124863404    2.69601490429
Ar    1.76724825281    3.31088063527    0.60937687097
Ar   -2.00626478319    2.90127410462    1.41913922226
Ar    3.53524332562   -0.05279998008    1.39847737222
Ar   -2.57044182409   -0.71555514114    2.70873635431
Ar   -0.74576884119    2.64118340420   -2.13926959340
Ar    2.04555605325   -2.66948195425   -0.89334534142
Ar   -1.63649607260   -3.06915867488   -0.10319800016
Ar    2.59606132413    0.85971176137   -2.15172343342
Ar   -3.36164067535    0.21301033034   -0.87322842139
Ar   -0.54658967087   -1.00400213160   -3.05493395486
Ar    0.06869773011    0.12618626020    0.38395402061
