12

LJ        -0.61483       -0.72329       -2.76641
LJ        -0.39854        3.84821       -0.30973
LJ         1.81590        2.74516        1.13664
LJ         4.78425        2.82615       -1.30132
LJ         2.78490       -2.76740        2.18232
LJ         2.02531        1.32928       -2.85851
LJ         0.61153       -0.79805       -0.26707
LJ        -3.06756       -0.70637       -0.92650
LJ        -1.49154        1.43332       -1.49149
LJ        -0.35793       -4.11815        3.37033
LJ         1.72895        0.54834       -0.31721
LJ         3.48923        0.74079        1.25944
