   12
   0.0000000000000000     
LJ    0.25542456570   -0.75971558300    0.80598352720
LJ    0.52832533770    0.98979988830    0.18217544670
LJ   -0.59978020330    0.86734651650    0.42425686750
LJ    1.05687393780   -0.01578474590    0.41807992980
LJ   -0.76844299430   -0.21391783010    0.80978665240
LJ   -0.22295032680    0.78959145110   -0.63954247690
LJ    0.61152647310   -0.79805140360   -0.26706886200
LJ   -0.48923649450   -0.91753622290   -0.03085141860
LJ    0.77610203880    0.25701398050   -0.64326559930
LJ   -1.00497479070    0.06368021830   -0.26105483450
LJ   -0.16340498270   -0.30015011480   -0.91328369270
LJ    0.02053743920    0.03772384560    0.11478446030
